2
1000 5
46
150 1 2
151 1 2
152 1 1
153 1 1
154 1 4
155 1 3
156 1 5
157 1 4
158 1 3
159 1 1
160 1 2
161 1 1
162 1 4
163 1 4
164 1 1
165 1 5
166 1 2
167 1 3
168 1 3
169 1 4
170 1 1
171 1 1
172 1 4
173 1 3
175 1 2
176 1 2
177 1 3
178 1 4
179 1 2
180 1 2
181 1 8
183 1 2
184 1 1
185 1 2
187 1 2
189 1 1
190 1 5
191 1 2
192 1 3
193 1 2
194 1 1
196 1 1
197 1 3
198 1 4
199 1 2
200 1 2
